Version identifier: 22.1.0.0 | 2022-03-09 | 1a383f8ce
CPXPARAM_Threads                                 1
CPXPARAM_MIP_Strategy_VariableSelect             3
CPXPARAM_TimeLimit                               599.99412645999996
Found incumbent of value 0.000000 after 0.00 sec. (0.42 ticks)

Root node processing (before b&c):
  Real time             =    0.00 sec. (0.48 ticks)
Sequential b&c:
  Real time             =    0.00 sec. (0.00 ticks)
                          ------------
Total (root+branch&cut) =    0.00 sec. (0.48 ticks)
Version identifier: 22.1.0.0 | 2022-03-09 | 1a383f8ce
CPXPARAM_Threads                                 1
CPXPARAM_MIP_Strategy_VariableSelect             3
CPXPARAM_TimeLimit                               599.960063934
Found incumbent of value 0.000000 after 0.00 sec. (0.47 ticks)

Root node processing (before b&c):
  Real time             =    0.00 sec. (0.53 ticks)
Sequential b&c:
  Real time             =    0.00 sec. (0.00 ticks)
                          ------------
Total (root+branch&cut) =    0.00 sec. (0.53 ticks)
Version identifier: 22.1.0.0 | 2022-03-09 | 1a383f8ce
CPXPARAM_Threads                                 1
CPXPARAM_MIP_Strategy_VariableSelect             3
CPXPARAM_TimeLimit                               599.93102503399996
Tried aggregator 1 time.
MIP Presolve eliminated 18 rows and 885 columns.
MIP Presolve modified 4 coefficients.
Reduced MIP has 2059 rows, 2655 columns, and 22567 nonzeros.
Reduced MIP has 2655 binaries, 0 generals, 0 SOSs, and 0 indicators.
Presolve time = 0.02 sec. (13.67 ticks)
Probing time = 0.00 sec. (2.67 ticks)
Tried aggregator 1 time.
Detecting symmetries...
Reduced MIP has 2059 rows, 2655 columns, and 22567 nonzeros.
Reduced MIP has 2655 binaries, 0 generals, 0 SOSs, and 0 indicators.
Presolve time = 0.02 sec. (13.32 ticks)
Probing time = 0.00 sec. (2.67 ticks)
Clique table members: 1464.
MIP emphasis: balance optimality and feasibility.
MIP search method: dynamic search.
Parallel mode: none, using 1 thread.
Root relaxation solution time = 0.02 sec. (17.50 ticks)

        Nodes                                         Cuts/
   Node  Left     Objective  IInf  Best Integer    Best Bound    ItCnt     Gap

      0     0        0.0000    95                      0.0000      447         
*     0+    0                            0.0000        0.0000             0.00%
      0     0        cutoff              0.0000        0.0000      447    0.00%
Elapsed time = 0.18 sec. (143.25 ticks, tree = 0.01 MB, solutions = 1)

Root node processing (before b&c):
  Real time             =    0.18 sec. (143.36 ticks)
Sequential b&c:
  Real time             =    0.00 sec. (0.00 ticks)
                          ------------
Total (root+branch&cut) =    0.18 sec. (143.36 ticks)
Version identifier: 22.1.0.0 | 2022-03-09 | 1a383f8ce
CPXPARAM_Threads                                 1
CPXPARAM_MIP_Strategy_VariableSelect             3
CPXPARAM_TimeLimit                               599.72735822499999
Tried aggregator 1 time.
MIP Presolve eliminated 18 rows and 906 columns.
MIP Presolve modified 3 coefficients.
Reduced MIP has 2108 rows, 2718 columns, and 23106 nonzeros.
Reduced MIP has 2718 binaries, 0 generals, 0 SOSs, and 0 indicators.
Presolve time = 0.02 sec. (13.97 ticks)
Probing time = 0.00 sec. (2.69 ticks)
Tried aggregator 1 time.
Detecting symmetries...
Reduced MIP has 2108 rows, 2718 columns, and 23106 nonzeros.
Reduced MIP has 2718 binaries, 0 generals, 0 SOSs, and 0 indicators.
Presolve time = 0.02 sec. (13.65 ticks)
Probing time = 0.00 sec. (2.69 ticks)
Clique table members: 1499.
MIP emphasis: balance optimality and feasibility.
MIP search method: dynamic search.
Parallel mode: none, using 1 thread.
Root relaxation solution time = 0.02 sec. (19.99 ticks)

        Nodes                                         Cuts/
   Node  Left     Objective  IInf  Best Integer    Best Bound    ItCnt     Gap

      0     0        0.0000   126                      0.0000      512         
*     0+    0                            0.0000        0.0000             0.00%
      0     0        cutoff              0.0000        0.0000      512    0.00%
Elapsed time = 0.14 sec. (113.23 ticks, tree = 0.01 MB, solutions = 1)

Root node processing (before b&c):
  Real time             =    0.14 sec. (113.34 ticks)
Sequential b&c:
  Real time             =    0.00 sec. (0.00 ticks)
                          ------------
Total (root+branch&cut) =    0.14 sec. (113.34 ticks)
Version identifier: 22.1.0.0 | 2022-03-09 | 1a383f8ce
CPXPARAM_Threads                                 1
CPXPARAM_MIP_Strategy_VariableSelect             3
CPXPARAM_TimeLimit                               599.56568776500001
Tried aggregator 1 time.
MIP Presolve eliminated 18 rows and 915 columns.
MIP Presolve modified 3 coefficients.
Reduced MIP has 2129 rows, 2745 columns, and 23337 nonzeros.
Reduced MIP has 2745 binaries, 0 generals, 0 SOSs, and 0 indicators.
Presolve time = 0.02 sec. (14.09 ticks)
Probing time = 0.00 sec. (2.70 ticks)
Tried aggregator 1 time.
Detecting symmetries...
Reduced MIP has 2129 rows, 2745 columns, and 23337 nonzeros.
Reduced MIP has 2745 binaries, 0 generals, 0 SOSs, and 0 indicators.
Presolve time = 0.02 sec. (13.77 ticks)
Probing time = 0.00 sec. (2.70 ticks)
Clique table members: 1514.
MIP emphasis: balance optimality and feasibility.
MIP search method: dynamic search.
Parallel mode: none, using 1 thread.
Root relaxation solution time = 0.03 sec. (25.61 ticks)

        Nodes                                         Cuts/
   Node  Left     Objective  IInf  Best Integer    Best Bound    ItCnt     Gap

      0     0        0.0000   172                      0.0000      601         
*     0+    0                            0.0000        0.0000             0.00%
      0     0        cutoff              0.0000        0.0000      601    0.00%
Elapsed time = 0.22 sec. (181.93 ticks, tree = 0.01 MB, solutions = 1)

Root node processing (before b&c):
  Real time             =    0.22 sec. (182.04 ticks)
Sequential b&c:
  Real time             =    0.00 sec. (0.00 ticks)
                          ------------
Total (root+branch&cut) =    0.22 sec. (182.04 ticks)
Version identifier: 22.1.0.0 | 2022-03-09 | 1a383f8ce
CPXPARAM_Threads                                 1
CPXPARAM_MIP_Strategy_VariableSelect             3
CPXPARAM_TimeLimit                               599.32453582599999
Tried aggregator 1 time.
MIP Presolve eliminated 18 rows and 921 columns.
MIP Presolve modified 3 coefficients.
Reduced MIP has 2143 rows, 2763 columns, and 23491 nonzeros.
Reduced MIP has 2763 binaries, 0 generals, 0 SOSs, and 0 indicators.
Presolve time = 0.02 sec. (14.18 ticks)
Probing time = 0.00 sec. (2.70 ticks)
Tried aggregator 1 time.
Detecting symmetries...
Reduced MIP has 2143 rows, 2763 columns, and 23491 nonzeros.
Reduced MIP has 2763 binaries, 0 generals, 0 SOSs, and 0 indicators.
Presolve time = 0.02 sec. (13.85 ticks)
Probing time = 0.00 sec. (2.70 ticks)
Clique table members: 1524.
MIP emphasis: balance optimality and feasibility.
MIP search method: dynamic search.
Parallel mode: none, using 1 thread.
Root relaxation solution time = 0.02 sec. (21.88 ticks)

        Nodes                                         Cuts/
   Node  Left     Objective  IInf  Best Integer    Best Bound    ItCnt     Gap

      0     0        0.0000   212                      0.0000      575         
*     0+    0                            0.0000        0.0000             0.00%
      0     0        cutoff              0.0000        0.0000      575    0.00%
Elapsed time = 0.25 sec. (185.77 ticks, tree = 0.01 MB, solutions = 1)

Root node processing (before b&c):
  Real time             =    0.25 sec. (185.89 ticks)
Sequential b&c:
  Real time             =    0.00 sec. (0.00 ticks)
                          ------------
Total (root+branch&cut) =    0.25 sec. (185.89 ticks)
Version identifier: 22.1.0.0 | 2022-03-09 | 1a383f8ce
CPXPARAM_Threads                                 1
CPXPARAM_MIP_Strategy_VariableSelect             3
CPXPARAM_TimeLimit                               599.05376432900005
Tried aggregator 1 time.
MIP Presolve eliminated 18 rows and 924 columns.
MIP Presolve modified 3 coefficients.
Reduced MIP has 2150 rows, 2772 columns, and 23568 nonzeros.
Reduced MIP has 2772 binaries, 0 generals, 0 SOSs, and 0 indicators.
Presolve time = 0.02 sec. (14.24 ticks)
Probing time = 0.00 sec. (2.70 ticks)
Tried aggregator 1 time.
Detecting symmetries...
Reduced MIP has 2150 rows, 2772 columns, and 23568 nonzeros.
Reduced MIP has 2772 binaries, 0 generals, 0 SOSs, and 0 indicators.
Presolve time = 0.02 sec. (13.91 ticks)
Probing time = 0.00 sec. (2.70 ticks)
Clique table members: 1529.
MIP emphasis: balance optimality and feasibility.
MIP search method: dynamic search.
Parallel mode: none, using 1 thread.
Root relaxation solution time = 0.03 sec. (27.54 ticks)

        Nodes                                         Cuts/
   Node  Left     Objective  IInf  Best Integer    Best Bound    ItCnt     Gap

      0     0        0.0000   137                      0.0000      636         
*     0+    0                            0.0000        0.0000             0.00%
      0     0        cutoff              0.0000        0.0000      636    0.00%
Elapsed time = 0.21 sec. (166.21 ticks, tree = 0.01 MB, solutions = 1)

Root node processing (before b&c):
  Real time             =    0.21 sec. (166.32 ticks)
Sequential b&c:
  Real time             =    0.00 sec. (0.00 ticks)
                          ------------
Total (root+branch&cut) =    0.21 sec. (166.32 ticks)
Primal:	308
Dual:	308
Status:	Optimal
Time:	1.17222
Sequence:
	9
	6
	9
	9
	9
	9
	5
	9
	9
	9
	6
	9
	5
	9
	9
	9
	6
	9
	9
	9
	9
	6
	9
	9
	5
	9
	9
	9
	9
	6
	9
	9
	9
	9
	9
	9
	9
	9
	6
	9
	9
	9
	6
	9
	5
	9
	9
	9
	6
	9
	9
	9
	6
	9
	5
	9
	9
	6
	9
	9
	5
	9
	6
	9
	9
	9
	9
	5
	9
	6
	9
	9
	9
	9
	9
	6
	9
	9
	9
	9
	9
	9
	9
	6
	9
	9
	5
	9
	6
	9
	9
	5
	9
	6
	9
	9
	5
	9
	9
	9
	9
	6
	4
	9
	5
	9
	0
	1
	4
	5
	0
	4
	9
	4
	6
	9
	5
	9
	9
	6
	0
	3
	9
	4
	5
	9
	6
	0
	9
	5
	9
	0
	4
	6
	9
	4
	5
	9
	0
	5
	4
	9
	1
	4
	1
	9
	6
	2
	10
	4
	6
	0
	5
	9
	4
	6
	9
	0
	4
	6
	0
	3
	4
	6
	9
	2
	5
	9
	6
	0
	5
	9
	1
	9
	6
	9
	5
	0
	6
	4
	3
	0
	9
	6
	4
	1
	9
	6
	9
	5
	9
	6
	9
	5
	0
	4
	6
	9
	2
	5
	9
	6
	2
	5
	9
	9
	6
	4
	9
	5
	9
	6
	9
	10
	9
	9
	6
	9
	9
	0
	1
	9
	6
	9
	5
	9
	9
	6
	9
	5
	9
	6
	0
	5
	9
	2
	5
	9
	6
	9
	3
	4
	6
	0
	9
	10
	0
	6
	9
	1
	2
	6
	4
	10
	4
	6
	9
	9
	5
	9
	6
	9
	4
	2
	4
	6
	0
	4
	4
	9
	9
	4
	9
	6
	4
	0
	1
	4
	6
	0
	5
	4
	9
	6
	0
	5
	9
	6
	0
	1
	4
	5
	0
	6
	9
	4
	5
	0
	6
	4
	9
	4
	1
	9
	6
	2
	4
	5
